============================[ Problem Statistics ]=============================|                                                                             ||  Number of variables:          4242                                         ||  Number of clauses:           10101                                         ||  Parse time:                   0.49 s                                       ||                                                                             |============================[ Search Statistics ]==============================| Conflicts |          ORIGINAL         |          LEARNT          | Progress ||           |    Vars  Clauses Literals |    Limit  Clauses Lit/Cl |          |===============================================================================|       100 |    1591     6306   780247 |     2312      100     53 | 62.501 % ||       250 |    1591     6306   780247 |     2543      250     75 | 62.495 % |===============================================================================restarts              : 3conflicts             : 275            (373 /sec)decisions             : 541            (0.00 % random) (733 /sec)propagations          : 11803          (15993 /sec)conflict literals     : 21275          (94.81 % deleted)CPU time              : 0.738 sSATISFIABLE